p cnf 31 129
1 2 3 4 0
-1 -2 0
-1 -3 0
-1 -4 0
-2 -3 0
-2 -4 0
-3 -4 0
5 6 0
5 4 0
5 7 0
6 4 0
6 7 0
4 7 0
-5 -6 -4 -7 0
-8 0
-9 0
-10 0
-11 0
2 12 13 0
2 12 14 0
2 13 14 0
12 13 14 0
-2 -12 -13 0
-2 -12 -14 0
-2 -13 -14 0
-12 -13 -14 0
15 16 0
15 17 0
15 18 0
16 17 0
16 18 0
17 18 0
-15 -16 -17 -18 0
-19 20 0
-20 19 0
-5 7 0
-7 5 0
-21 22 0
-22 21 0
-16 18 0
-18 16 0
-19 -23 -24 0
-19 23 24 0
-23 19 24 0
-24 19 23 0
-21 -25 -26 0
-21 25 26 0
-25 21 26 0
-26 21 25 0
-23 -1 -3 0
-23 1 3 0
-1 23 3 0
-3 23 1 0
-25 -27 -28 0
-25 27 28 0
-27 25 28 0
-28 25 27 0
-1 -5 -4 0
-1 5 4 0
-5 1 4 0
-4 1 5 0
-27 -16 -17 0
-27 16 17 0
-16 27 17 0
-17 27 16 0
-8 -20 -10 0
-8 20 10 0
-20 8 10 0
-10 8 20 0
-6 -7 -29 0
-6 7 29 0
-7 6 29 0
-29 6 7 0
-9 -10 -22 0
-9 10 22 0
-10 9 22 0
-22 9 10 0
-15 -29 -18 0
-15 29 18 0
-29 15 18 0
-18 15 29 0
-8 -30 -24 0
-8 -30 -11 0
-8 -24 -11 0
-30 -24 -11 0
-8 30 24 11 0
-30 8 24 11 0
-24 8 30 11 0
-11 8 30 24 0
-30 -2 -3 0
-30 -2 -13 0
-30 -3 -13 0
-2 -3 -13 0
-30 2 3 13 0
-2 30 3 13 0
-3 30 2 13 0
-13 30 2 3 0
-2 -6 -4 0
-2 -6 -14 0
-2 -4 -14 0
-6 -4 -14 0
-2 6 4 14 0
-6 2 4 14 0
-4 2 6 14 0
-14 2 6 4 0
-9 -31 -11 0
-9 -31 -26 0
-9 -11 -26 0
-31 -11 -26 0
-9 31 11 26 0
-31 9 11 26 0
-11 9 31 26 0
-26 9 31 11 0
-31 -12 -13 0
-31 -12 -28 0
-31 -13 -28 0
-12 -13 -28 0
-31 12 13 28 0
-12 31 13 28 0
-13 31 12 28 0
-28 31 12 13 0
-12 -15 -14 0
-12 -15 -17 0
-12 -14 -17 0
-15 -14 -17 0
-12 15 14 17 0
-15 12 14 17 0
-14 12 15 17 0
-17 12 15 14 0
